\* Source Pyomo model name=unknown *\

min 
cost:
+9999999 PExcess(1)
+9999999 PExcess(10)
+9999999 PExcess(11)
+9999999 PExcess(12)
+9999999 PExcess(13)
+9999999 PExcess(14)
+9999999 PExcess(15)
+9999999 PExcess(16)
+9999999 PExcess(17)
+9999999 PExcess(18)
+9999999 PExcess(19)
+9999999 PExcess(2)
+9999999 PExcess(20)
+9999999 PExcess(21)
+9999999 PExcess(22)
+9999999 PExcess(23)
+9999999 PExcess(24)
+9999999 PExcess(25)
+9999999 PExcess(3)
+9999999 PExcess(4)
+9999999 PExcess(5)
+9999999 PExcess(6)
+9999999 PExcess(7)
+9999999 PExcess(8)
+9999999 PExcess(9)
+500 Ppv
+50000 Pwind
+9999999 StorageExcess(1)
+9999999 StorageExcess(10)
+9999999 StorageExcess(11)
+9999999 StorageExcess(12)
+9999999 StorageExcess(13)
+9999999 StorageExcess(14)
+9999999 StorageExcess(15)
+9999999 StorageExcess(16)
+9999999 StorageExcess(17)
+9999999 StorageExcess(18)
+9999999 StorageExcess(19)
+9999999 StorageExcess(2)
+9999999 StorageExcess(20)
+9999999 StorageExcess(21)
+9999999 StorageExcess(22)
+9999999 StorageExcess(23)
+9999999 StorageExcess(24)
+9999999 StorageExcess(25)
+9999999 StorageExcess(3)
+9999999 StorageExcess(4)
+9999999 StorageExcess(5)
+9999999 StorageExcess(6)
+9999999 StorageExcess(7)
+9999999 StorageExcess(8)
+9999999 StorageExcess(9)

s.t.

c_l_EnergyDemand(1)_:
+1 PExcess(1)
+0.0001 PowerGeneratingWater(1)
+0.35082398400000003 Pwind
>= 5.6008825329216005

c_l_EnergyDemand(2)_:
+1 PExcess(2)
+0.0001 PowerGeneratingWater(2)
+0.672466656 Pwind
>= 5.7845159089632006

c_l_EnergyDemand(3)_:
+1 PExcess(3)
+0.0001 PowerGeneratingWater(3)
+0.38713856400000002 Pwind
>= 6.2436065228064006

c_l_EnergyDemand(4)_:
+1 PExcess(4)
+0.0001 PowerGeneratingWater(4)
+0.14558244000000001 Pwind
>= 6.9781472007120016

c_l_EnergyDemand(5)_:
+1 PExcess(5)
+0.0001 PowerGeneratingWater(5)
+0.12256115999999999 Pwind
>= 7.8045260878559999

c_l_EnergyDemand(6)_:
+1 PExcess(6)
+0.0001 PowerGeneratingWater(6)
+0.14558244000000001 Pwind
>= 8.3553975210240008

c_l_EnergyDemand(7)_:
+1 PExcess(7)
+0.0001 PowerGeneratingWater(7)
+1.1521022583701999 Ppv
+0.168602844 Pwind
>= 8.6308691063040008

c_l_EnergyDemand(8)_:
+1 PExcess(8)
+0.0001 PowerGeneratingWater(8)
+2.2851615042003597 Ppv
+0.28532809199999998 Pwind
>= 8.9981645533440009

c_l_EnergyDemand(9)_:
+1 PExcess(9)
+0.0001 PowerGeneratingWater(9)
+3.25635514348836 Ppv
+0.42345314399999995 Pwind
>= 8.7226929680640009

c_l_EnergyDemand(10)_:
+1 PExcess(10)
+0.0001 PowerGeneratingWater(10)
+3.9657073604143194 Ppv
+0.77006181600000001 Pwind
>= 8.6308691063040008

c_l_EnergyDemand(11)_:
+1 PExcess(11)
+0.0001 PowerGeneratingWater(11)
+4.3037208329102405 Ppv
+1.3747637399999999 Pwind
>= 8.6308691063040008

c_l_EnergyDemand(12)_:
+1 PExcess(12)
+0.0001 PowerGeneratingWater(12)
+4.2799170672417599 Ppv
+2.296892148 Pwind
>= 9.2735644012320009

c_l_EnergyDemand(13)_:
+1 PExcess(13)
+0.0001 PowerGeneratingWater(13)
+3.88953531028044 Ppv
+2.8970546400000003 Pwind
>= 8.9981645533440009

c_l_EnergyDemand(14)_:
+1 PExcess(14)
+0.0001 PowerGeneratingWater(14)
+3.1659008339428802 Ppv
+2.7932985720000003 Pwind
>= 8.3553975210240008

c_l_EnergyDemand(15)_:
+1 PExcess(15)
+0.0001 PowerGeneratingWater(15)
+2.1756641821236005 Ppv
+1.845555048 Pwind
>= 8.2635736592640008

c_l_EnergyDemand(16)_:
+1 PExcess(16)
+0.0001 PowerGeneratingWater(16)
+1.01880117062496 Ppv
+0.82356088799999994 Pwind
>= 8.2635736592640008

c_l_EnergyDemand(17)_:
+1 PExcess(17)
+0.0001 PowerGeneratingWater(17)
+0.090454309541342648 Ppv
+0.38713856400000002 Pwind
>= 9.0899166777120008

c_l_EnergyDemand(18)_:
+1 PExcess(18)
+0.0001 PowerGeneratingWater(18)
+0.35082398400000003 Pwind
>= 9.916331433552001

c_l_EnergyDemand(19)_:
+1 PExcess(19)
+0.0001 PowerGeneratingWater(19)
+0.28532809199999998 Pwind
>= 10.926322175520001

c_l_EnergyDemand(20)_:
+1 PExcess(20)
+0.0001 PowerGeneratingWater(20)
+0.35082398400000003 Pwind
>= 10.559026728480001

c_l_EnergyDemand(21)_:
+1 PExcess(21)
+0.0001 PowerGeneratingWater(21)
+0.49608230399999997 Pwind
>= 9.7326837100320009

c_l_EnergyDemand(22)_:
+1 PExcess(22)
+0.0001 PowerGeneratingWater(22)
+0.58427448000000004 Pwind
>= 8.7226929680640009

c_l_EnergyDemand(23)_:
+1 PExcess(23)
+0.0001 PowerGeneratingWater(23)
+0.54017839199999995 Pwind
>= 7.8963499496159999

c_l_EnergyDemand(24)_:
+1 PExcess(24)
+0.0001 PowerGeneratingWater(24)
+0.45976772399999999 Pwind
>= 5.8763325969840006

c_l_EnergyDemand(25)_:
+1 PExcess(25)
+0.0001 PowerGeneratingWater(25)
+0.168602844 Pwind
>= 5.6926992209424014

c_u_MaxWaterPower(1)_:
+0.0001 PowerGeneratingWater(1)
<= 100

c_u_MaxWaterPower(2)_:
+0.0001 PowerGeneratingWater(2)
<= 100

c_u_MaxWaterPower(3)_:
+0.0001 PowerGeneratingWater(3)
<= 100

c_u_MaxWaterPower(4)_:
+0.0001 PowerGeneratingWater(4)
<= 100

c_u_MaxWaterPower(5)_:
+0.0001 PowerGeneratingWater(5)
<= 100

c_u_MaxWaterPower(6)_:
+0.0001 PowerGeneratingWater(6)
<= 100

c_u_MaxWaterPower(7)_:
+0.0001 PowerGeneratingWater(7)
<= 100

c_u_MaxWaterPower(8)_:
+0.0001 PowerGeneratingWater(8)
<= 100

c_u_MaxWaterPower(9)_:
+0.0001 PowerGeneratingWater(9)
<= 100

c_u_MaxWaterPower(10)_:
+0.0001 PowerGeneratingWater(10)
<= 100

c_u_MaxWaterPower(11)_:
+0.0001 PowerGeneratingWater(11)
<= 100

c_u_MaxWaterPower(12)_:
+0.0001 PowerGeneratingWater(12)
<= 100

c_u_MaxWaterPower(13)_:
+0.0001 PowerGeneratingWater(13)
<= 100

c_u_MaxWaterPower(14)_:
+0.0001 PowerGeneratingWater(14)
<= 100

c_u_MaxWaterPower(15)_:
+0.0001 PowerGeneratingWater(15)
<= 100

c_u_MaxWaterPower(16)_:
+0.0001 PowerGeneratingWater(16)
<= 100

c_u_MaxWaterPower(17)_:
+0.0001 PowerGeneratingWater(17)
<= 100

c_u_MaxWaterPower(18)_:
+0.0001 PowerGeneratingWater(18)
<= 100

c_u_MaxWaterPower(19)_:
+0.0001 PowerGeneratingWater(19)
<= 100

c_u_MaxWaterPower(20)_:
+0.0001 PowerGeneratingWater(20)
<= 100

c_u_MaxWaterPower(21)_:
+0.0001 PowerGeneratingWater(21)
<= 100

c_u_MaxWaterPower(22)_:
+0.0001 PowerGeneratingWater(22)
<= 100

c_u_MaxWaterPower(23)_:
+0.0001 PowerGeneratingWater(23)
<= 100

c_u_MaxWaterPower(24)_:
+0.0001 PowerGeneratingWater(24)
<= 100

c_u_MaxWaterPower(25)_:
+0.0001 PowerGeneratingWater(25)
<= 100

c_u_WaterDemand(1)_:
+1 PowerGeneratingWater(1)
<= 90000

c_u_WaterDemand(2)_:
+1 PowerGeneratingWater(1)
+1 PowerGeneratingWater(2)
<= 136340.64997275587

c_u_WaterDemand(3)_:
+1 PowerGeneratingWater(1)
+1 PowerGeneratingWater(2)
+1 PowerGeneratingWater(3)
<= 183721.88040011557

c_u_WaterDemand(4)_:
+1 PowerGeneratingWater(1)
+1 PowerGeneratingWater(2)
+1 PowerGeneratingWater(3)
+1 PowerGeneratingWater(4)
<= 231727.45910023758

c_u_WaterDemand(5)_:
+1 PowerGeneratingWater(1)
+1 PowerGeneratingWater(2)
+1 PowerGeneratingWater(3)
+1 PowerGeneratingWater(4)
+1 PowerGeneratingWater(5)
<= 280149.26998220105

c_u_WaterDemand(6)_:
+1 PowerGeneratingWater(1)
+1 PowerGeneratingWater(2)
+1 PowerGeneratingWater(3)
+1 PowerGeneratingWater(4)
+1 PowerGeneratingWater(5)
+1 PowerGeneratingWater(6)
<= 328154.84868232312

c_u_WaterDemand(7)_:
+1 PowerGeneratingWater(1)
+1 PowerGeneratingWater(2)
+1 PowerGeneratingWater(3)
+1 PowerGeneratingWater(4)
+1 PowerGeneratingWater(5)
+1 PowerGeneratingWater(6)
+1 PowerGeneratingWater(7)
<= 375119.84692784131

c_u_WaterDemand(8)_:
+1 PowerGeneratingWater(1)
+1 PowerGeneratingWater(2)
+1 PowerGeneratingWater(3)
+1 PowerGeneratingWater(4)
+1 PowerGeneratingWater(5)
+1 PowerGeneratingWater(6)
+1 PowerGeneratingWater(7)
+1 PowerGeneratingWater(8)
<= 419327.30696864106

c_u_WaterDemand(9)_:
+1 PowerGeneratingWater(1)
+1 PowerGeneratingWater(2)
+1 PowerGeneratingWater(3)
+1 PowerGeneratingWater(4)
+1 PowerGeneratingWater(5)
+1 PowerGeneratingWater(6)
+1 PowerGeneratingWater(7)
+1 PowerGeneratingWater(8)
+1 PowerGeneratingWater(9)
<= 462129.98339575191

c_u_WaterDemand(10)_:
+1 PowerGeneratingWater(1)
+1 PowerGeneratingWater(10)
+1 PowerGeneratingWater(2)
+1 PowerGeneratingWater(3)
+1 PowerGeneratingWater(4)
+1 PowerGeneratingWater(5)
+1 PowerGeneratingWater(6)
+1 PowerGeneratingWater(7)
+1 PowerGeneratingWater(8)
+1 PowerGeneratingWater(9)
<= 504568.45666373626

c_u_WaterDemand(11)_:
+1 PowerGeneratingWater(1)
+1 PowerGeneratingWater(10)
+1 PowerGeneratingWater(11)
+1 PowerGeneratingWater(2)
+1 PowerGeneratingWater(3)
+1 PowerGeneratingWater(4)
+1 PowerGeneratingWater(5)
+1 PowerGeneratingWater(6)
+1 PowerGeneratingWater(7)
+1 PowerGeneratingWater(8)
+1 PowerGeneratingWater(9)
<= 547527.2201590247

c_u_WaterDemand(12)_:
+1 PowerGeneratingWater(1)
+1 PowerGeneratingWater(10)
+1 PowerGeneratingWater(11)
+1 PowerGeneratingWater(12)
+1 PowerGeneratingWater(2)
+1 PowerGeneratingWater(3)
+1 PowerGeneratingWater(4)
+1 PowerGeneratingWater(5)
+1 PowerGeneratingWater(6)
+1 PowerGeneratingWater(7)
+1 PowerGeneratingWater(8)
+1 PowerGeneratingWater(9)
<= 591526.56410892098

c_u_WaterDemand(13)_:
+1 PowerGeneratingWater(1)
+1 PowerGeneratingWater(10)
+1 PowerGeneratingWater(11)
+1 PowerGeneratingWater(12)
+1 PowerGeneratingWater(13)
+1 PowerGeneratingWater(2)
+1 PowerGeneratingWater(3)
+1 PowerGeneratingWater(4)
+1 PowerGeneratingWater(5)
+1 PowerGeneratingWater(6)
+1 PowerGeneratingWater(7)
+1 PowerGeneratingWater(8)
+1 PowerGeneratingWater(9)
<= 636150.25633157301

c_u_WaterDemand(14)_:
+1 PowerGeneratingWater(1)
+1 PowerGeneratingWater(10)
+1 PowerGeneratingWater(11)
+1 PowerGeneratingWater(12)
+1 PowerGeneratingWater(13)
+1 PowerGeneratingWater(14)
+1 PowerGeneratingWater(2)
+1 PowerGeneratingWater(3)
+1 PowerGeneratingWater(4)
+1 PowerGeneratingWater(5)
+1 PowerGeneratingWater(6)
+1 PowerGeneratingWater(7)
+1 PowerGeneratingWater(8)
+1 PowerGeneratingWater(9)
<= 680982.06464517373

c_u_WaterDemand(15)_:
+1 PowerGeneratingWater(1)
+1 PowerGeneratingWater(10)
+1 PowerGeneratingWater(11)
+1 PowerGeneratingWater(12)
+1 PowerGeneratingWater(13)
+1 PowerGeneratingWater(14)
+1 PowerGeneratingWater(15)
+1 PowerGeneratingWater(2)
+1 PowerGeneratingWater(3)
+1 PowerGeneratingWater(4)
+1 PowerGeneratingWater(5)
+1 PowerGeneratingWater(6)
+1 PowerGeneratingWater(7)
+1 PowerGeneratingWater(8)
+1 PowerGeneratingWater(9)
<= 725865.90198150044

c_u_WaterDemand(16)_:
+1 PowerGeneratingWater(1)
+1 PowerGeneratingWater(10)
+1 PowerGeneratingWater(11)
+1 PowerGeneratingWater(12)
+1 PowerGeneratingWater(13)
+1 PowerGeneratingWater(14)
+1 PowerGeneratingWater(15)
+1 PowerGeneratingWater(16)
+1 PowerGeneratingWater(2)
+1 PowerGeneratingWater(3)
+1 PowerGeneratingWater(4)
+1 PowerGeneratingWater(5)
+1 PowerGeneratingWater(6)
+1 PowerGeneratingWater(7)
+1 PowerGeneratingWater(8)
+1 PowerGeneratingWater(9)
<= 770801.76834055292

c_u_WaterDemand(17)_:
+1 PowerGeneratingWater(1)
+1 PowerGeneratingWater(10)
+1 PowerGeneratingWater(11)
+1 PowerGeneratingWater(12)
+1 PowerGeneratingWater(13)
+1 PowerGeneratingWater(14)
+1 PowerGeneratingWater(15)
+1 PowerGeneratingWater(16)
+1 PowerGeneratingWater(17)
+1 PowerGeneratingWater(2)
+1 PowerGeneratingWater(3)
+1 PowerGeneratingWater(4)
+1 PowerGeneratingWater(5)
+1 PowerGeneratingWater(6)
+1 PowerGeneratingWater(7)
+1 PowerGeneratingWater(8)
+1 PowerGeneratingWater(9)
<= 815789.66372233129

c_u_WaterDemand(18)_:
+1 PowerGeneratingWater(1)
+1 PowerGeneratingWater(10)
+1 PowerGeneratingWater(11)
+1 PowerGeneratingWater(12)
+1 PowerGeneratingWater(13)
+1 PowerGeneratingWater(14)
+1 PowerGeneratingWater(15)
+1 PowerGeneratingWater(16)
+1 PowerGeneratingWater(17)
+1 PowerGeneratingWater(18)
+1 PowerGeneratingWater(2)
+1 PowerGeneratingWater(3)
+1 PowerGeneratingWater(4)
+1 PowerGeneratingWater(5)
+1 PowerGeneratingWater(6)
+1 PowerGeneratingWater(7)
+1 PowerGeneratingWater(8)
+1 PowerGeneratingWater(9)
<= 860309.29789953155

c_u_WaterDemand(19)_:
+1 PowerGeneratingWater(1)
+1 PowerGeneratingWater(10)
+1 PowerGeneratingWater(11)
+1 PowerGeneratingWater(12)
+1 PowerGeneratingWater(13)
+1 PowerGeneratingWater(14)
+1 PowerGeneratingWater(15)
+1 PowerGeneratingWater(16)
+1 PowerGeneratingWater(17)
+1 PowerGeneratingWater(18)
+1 PowerGeneratingWater(19)
+1 PowerGeneratingWater(2)
+1 PowerGeneratingWater(3)
+1 PowerGeneratingWater(4)
+1 PowerGeneratingWater(5)
+1 PowerGeneratingWater(6)
+1 PowerGeneratingWater(7)
+1 PowerGeneratingWater(8)
+1 PowerGeneratingWater(9)
<= 904048.49673579854

c_u_WaterDemand(20)_:
+1 PowerGeneratingWater(1)
+1 PowerGeneratingWater(10)
+1 PowerGeneratingWater(11)
+1 PowerGeneratingWater(12)
+1 PowerGeneratingWater(13)
+1 PowerGeneratingWater(14)
+1 PowerGeneratingWater(15)
+1 PowerGeneratingWater(16)
+1 PowerGeneratingWater(17)
+1 PowerGeneratingWater(18)
+1 PowerGeneratingWater(19)
+1 PowerGeneratingWater(2)
+1 PowerGeneratingWater(20)
+1 PowerGeneratingWater(3)
+1 PowerGeneratingWater(4)
+1 PowerGeneratingWater(5)
+1 PowerGeneratingWater(6)
+1 PowerGeneratingWater(7)
+1 PowerGeneratingWater(8)
+1 PowerGeneratingWater(9)
<= 946747.11511745758

c_u_WaterDemand(21)_:
+1 PowerGeneratingWater(1)
+1 PowerGeneratingWater(10)
+1 PowerGeneratingWater(11)
+1 PowerGeneratingWater(12)
+1 PowerGeneratingWater(13)
+1 PowerGeneratingWater(14)
+1 PowerGeneratingWater(15)
+1 PowerGeneratingWater(16)
+1 PowerGeneratingWater(17)
+1 PowerGeneratingWater(18)
+1 PowerGeneratingWater(19)
+1 PowerGeneratingWater(2)
+1 PowerGeneratingWater(20)
+1 PowerGeneratingWater(21)
+1 PowerGeneratingWater(3)
+1 PowerGeneratingWater(4)
+1 PowerGeneratingWater(5)
+1 PowerGeneratingWater(6)
+1 PowerGeneratingWater(7)
+1 PowerGeneratingWater(8)
+1 PowerGeneratingWater(9)
<= 989029.5013172644

c_u_WaterDemand(22)_:
+1 PowerGeneratingWater(1)
+1 PowerGeneratingWater(10)
+1 PowerGeneratingWater(11)
+1 PowerGeneratingWater(12)
+1 PowerGeneratingWater(13)
+1 PowerGeneratingWater(14)
+1 PowerGeneratingWater(15)
+1 PowerGeneratingWater(16)
+1 PowerGeneratingWater(17)
+1 PowerGeneratingWater(18)
+1 PowerGeneratingWater(19)
+1 PowerGeneratingWater(2)
+1 PowerGeneratingWater(20)
+1 PowerGeneratingWater(21)
+1 PowerGeneratingWater(22)
+1 PowerGeneratingWater(3)
+1 PowerGeneratingWater(4)
+1 PowerGeneratingWater(5)
+1 PowerGeneratingWater(6)
+1 PowerGeneratingWater(7)
+1 PowerGeneratingWater(8)
+1 PowerGeneratingWater(9)
<= 1031624.0616534264

c_u_WaterDemand(23)_:
+1 PowerGeneratingWater(1)
+1 PowerGeneratingWater(10)
+1 PowerGeneratingWater(11)
+1 PowerGeneratingWater(12)
+1 PowerGeneratingWater(13)
+1 PowerGeneratingWater(14)
+1 PowerGeneratingWater(15)
+1 PowerGeneratingWater(16)
+1 PowerGeneratingWater(17)
+1 PowerGeneratingWater(18)
+1 PowerGeneratingWater(19)
+1 PowerGeneratingWater(2)
+1 PowerGeneratingWater(20)
+1 PowerGeneratingWater(21)
+1 PowerGeneratingWater(22)
+1 PowerGeneratingWater(23)
+1 PowerGeneratingWater(3)
+1 PowerGeneratingWater(4)
+1 PowerGeneratingWater(5)
+1 PowerGeneratingWater(6)
+1 PowerGeneratingWater(7)
+1 PowerGeneratingWater(8)
+1 PowerGeneratingWater(9)
<= 1074842.9702623896

c_u_WaterDemand(24)_:
+1 PowerGeneratingWater(1)
+1 PowerGeneratingWater(10)
+1 PowerGeneratingWater(11)
+1 PowerGeneratingWater(12)
+1 PowerGeneratingWater(13)
+1 PowerGeneratingWater(14)
+1 PowerGeneratingWater(15)
+1 PowerGeneratingWater(16)
+1 PowerGeneratingWater(17)
+1 PowerGeneratingWater(18)
+1 PowerGeneratingWater(19)
+1 PowerGeneratingWater(2)
+1 PowerGeneratingWater(20)
+1 PowerGeneratingWater(21)
+1 PowerGeneratingWater(22)
+1 PowerGeneratingWater(23)
+1 PowerGeneratingWater(24)
+1 PowerGeneratingWater(3)
+1 PowerGeneratingWater(4)
+1 PowerGeneratingWater(5)
+1 PowerGeneratingWater(6)
+1 PowerGeneratingWater(7)
+1 PowerGeneratingWater(8)
+1 PowerGeneratingWater(9)
<= 1119102.4593259152

c_u_WaterDemand(25)_:
+1 PowerGeneratingWater(1)
+1 PowerGeneratingWater(10)
+1 PowerGeneratingWater(11)
+1 PowerGeneratingWater(12)
+1 PowerGeneratingWater(13)
+1 PowerGeneratingWater(14)
+1 PowerGeneratingWater(15)
+1 PowerGeneratingWater(16)
+1 PowerGeneratingWater(17)
+1 PowerGeneratingWater(18)
+1 PowerGeneratingWater(19)
+1 PowerGeneratingWater(2)
+1 PowerGeneratingWater(20)
+1 PowerGeneratingWater(21)
+1 PowerGeneratingWater(22)
+1 PowerGeneratingWater(23)
+1 PowerGeneratingWater(24)
+1 PowerGeneratingWater(25)
+1 PowerGeneratingWater(3)
+1 PowerGeneratingWater(4)
+1 PowerGeneratingWater(5)
+1 PowerGeneratingWater(6)
+1 PowerGeneratingWater(7)
+1 PowerGeneratingWater(8)
+1 PowerGeneratingWater(9)
<= 1164922.8190713692

c_e_MaxStorageCapacity(1)_:
+1 PowerGeneratingWater(1)
-1 StorageExcess(1)
+1 StorageVolume(1)
= 96340.649972755869

c_e_MaxStorageCapacity(2)_:
+1 PowerGeneratingWater(2)
-1 StorageExcess(2)
-1 StorageVolume(1)
+1 StorageVolume(2)
= 47381.230427359704

c_e_MaxStorageCapacity(3)_:
+1 PowerGeneratingWater(3)
-1 StorageExcess(3)
-1 StorageVolume(2)
+1 StorageVolume(3)
= 48005.578700122001

c_e_MaxStorageCapacity(4)_:
+1 PowerGeneratingWater(4)
-1 StorageExcess(4)
-1 StorageVolume(3)
+1 StorageVolume(4)
= 48421.810881963531

c_e_MaxStorageCapacity(5)_:
+1 PowerGeneratingWater(5)
-1 StorageExcess(5)
-1 StorageVolume(4)
+1 StorageVolume(5)
= 48005.578700122001

c_e_MaxStorageCapacity(6)_:
+1 PowerGeneratingWater(6)
-1 StorageExcess(6)
-1 StorageVolume(5)
+1 StorageVolume(6)
= 46964.998245518174

c_e_MaxStorageCapacity(7)_:
+1 PowerGeneratingWater(7)
-1 StorageExcess(7)
-1 StorageVolume(6)
+1 StorageVolume(7)
= 44207.460040799757

c_e_MaxStorageCapacity(8)_:
+1 PowerGeneratingWater(8)
-1 StorageExcess(8)
-1 StorageVolume(7)
+1 StorageVolume(8)
= 42802.676427110804

c_e_MaxStorageCapacity(9)_:
+1 PowerGeneratingWater(9)
-1 StorageExcess(9)
-1 StorageVolume(8)
+1 StorageVolume(9)
= 42438.473267984416

c_e_MaxStorageCapacity(10)_:
+1 PowerGeneratingWater(10)
-1 StorageExcess(10)
+1 StorageVolume(10)
-1 StorageVolume(9)
= 42958.763495288382

c_e_MaxStorageCapacity(11)_:
+1 PowerGeneratingWater(11)
-1 StorageExcess(11)
-1 StorageVolume(10)
+1 StorageVolume(11)
= 43999.34394989632

c_e_MaxStorageCapacity(12)_:
+1 PowerGeneratingWater(12)
-1 StorageExcess(12)
-1 StorageVolume(11)
+1 StorageVolume(12)
= 44623.692222652004

c_e_MaxStorageCapacity(13)_:
+1 PowerGeneratingWater(13)
-1 StorageExcess(13)
-1 StorageVolume(12)
+1 StorageVolume(13)
= 44831.808313600821

c_e_MaxStorageCapacity(14)_:
+1 PowerGeneratingWater(14)
-1 StorageExcess(14)
-1 StorageVolume(13)
+1 StorageVolume(14)
= 44883.83733632668

c_e_MaxStorageCapacity(15)_:
+1 PowerGeneratingWater(15)
-1 StorageExcess(15)
-1 StorageVolume(14)
+1 StorageVolume(15)
= 44935.866359052539

c_e_MaxStorageCapacity(16)_:
+1 PowerGeneratingWater(16)
-1 StorageExcess(16)
-1 StorageVolume(15)
+1 StorageVolume(16)
= 44987.895381778399

c_e_MaxStorageCapacity(17)_:
+1 PowerGeneratingWater(17)
-1 StorageExcess(17)
-1 StorageVolume(16)
+1 StorageVolume(17)
= 44519.634177200285

c_e_MaxStorageCapacity(18)_:
+1 PowerGeneratingWater(18)
-1 StorageExcess(18)
-1 StorageVolume(17)
+1 StorageVolume(18)
= 43739.198836267024

c_e_MaxStorageCapacity(19)_:
+1 PowerGeneratingWater(19)
-1 StorageExcess(19)
-1 StorageVolume(18)
+1 StorageVolume(19)
= 42698.618381659086

c_e_MaxStorageCapacity(20)_:
+1 PowerGeneratingWater(20)
-1 StorageExcess(20)
-1 StorageVolume(19)
+1 StorageVolume(20)
= 42282.386199806831

c_e_MaxStorageCapacity(21)_:
+1 PowerGeneratingWater(21)
-1 StorageExcess(21)
-1 StorageVolume(20)
+1 StorageVolume(21)
= 42594.560336161987

c_e_MaxStorageCapacity(22)_:
+1 PowerGeneratingWater(22)
-1 StorageExcess(22)
-1 StorageVolume(21)
+1 StorageVolume(22)
= 43218.908608963051

c_e_MaxStorageCapacity(23)_:
+1 PowerGeneratingWater(23)
-1 StorageExcess(23)
-1 StorageVolume(22)
+1 StorageVolume(23)
= 44259.489063525616

c_e_MaxStorageCapacity(24)_:
+1 PowerGeneratingWater(24)
-1 StorageExcess(24)
-1 StorageVolume(23)
+1 StorageVolume(24)
= 45820.359745453963

c_e_MaxStorageCapacity(25)_:
+1 PowerGeneratingWater(25)
-1 StorageExcess(25)
-1 StorageVolume(24)
+1 StorageVolume(25)
= 46340.649972755877

c_e_ONE_VAR_CONSTANT: 
ONE_VAR_CONSTANT = 1.0

bounds
   0 <= Pwind <= +inf
   0 <= Ppv <= +inf
   0 <= PowerGeneratingWater(1) <= +inf
   0 <= PowerGeneratingWater(2) <= +inf
   0 <= PowerGeneratingWater(3) <= +inf
   0 <= PowerGeneratingWater(4) <= +inf
   0 <= PowerGeneratingWater(5) <= +inf
   0 <= PowerGeneratingWater(6) <= +inf
   0 <= PowerGeneratingWater(7) <= +inf
   0 <= PowerGeneratingWater(8) <= +inf
   0 <= PowerGeneratingWater(9) <= +inf
   0 <= PowerGeneratingWater(10) <= +inf
   0 <= PowerGeneratingWater(11) <= +inf
   0 <= PowerGeneratingWater(12) <= +inf
   0 <= PowerGeneratingWater(13) <= +inf
   0 <= PowerGeneratingWater(14) <= +inf
   0 <= PowerGeneratingWater(15) <= +inf
   0 <= PowerGeneratingWater(16) <= +inf
   0 <= PowerGeneratingWater(17) <= +inf
   0 <= PowerGeneratingWater(18) <= +inf
   0 <= PowerGeneratingWater(19) <= +inf
   0 <= PowerGeneratingWater(20) <= +inf
   0 <= PowerGeneratingWater(21) <= +inf
   0 <= PowerGeneratingWater(22) <= +inf
   0 <= PowerGeneratingWater(23) <= +inf
   0 <= PowerGeneratingWater(24) <= +inf
   0 <= PowerGeneratingWater(25) <= +inf
   0 <= PExcess(1) <= +inf
   0 <= PExcess(2) <= +inf
   0 <= PExcess(3) <= +inf
   0 <= PExcess(4) <= +inf
   0 <= PExcess(5) <= +inf
   0 <= PExcess(6) <= +inf
   0 <= PExcess(7) <= +inf
   0 <= PExcess(8) <= +inf
   0 <= PExcess(9) <= +inf
   0 <= PExcess(10) <= +inf
   0 <= PExcess(11) <= +inf
   0 <= PExcess(12) <= +inf
   0 <= PExcess(13) <= +inf
   0 <= PExcess(14) <= +inf
   0 <= PExcess(15) <= +inf
   0 <= PExcess(16) <= +inf
   0 <= PExcess(17) <= +inf
   0 <= PExcess(18) <= +inf
   0 <= PExcess(19) <= +inf
   0 <= PExcess(20) <= +inf
   0 <= PExcess(21) <= +inf
   0 <= PExcess(22) <= +inf
   0 <= PExcess(23) <= +inf
   0 <= PExcess(24) <= +inf
   0 <= PExcess(25) <= +inf
   0 <= StorageVolume(1) <= 90000
   0 <= StorageVolume(2) <= 90000
   0 <= StorageVolume(3) <= 90000
   0 <= StorageVolume(4) <= 90000
   0 <= StorageVolume(5) <= 90000
   0 <= StorageVolume(6) <= 90000
   0 <= StorageVolume(7) <= 90000
   0 <= StorageVolume(8) <= 90000
   0 <= StorageVolume(9) <= 90000
   0 <= StorageVolume(10) <= 90000
   0 <= StorageVolume(11) <= 90000
   0 <= StorageVolume(12) <= 90000
   0 <= StorageVolume(13) <= 90000
   0 <= StorageVolume(14) <= 90000
   0 <= StorageVolume(15) <= 90000
   0 <= StorageVolume(16) <= 90000
   0 <= StorageVolume(17) <= 90000
   0 <= StorageVolume(18) <= 90000
   0 <= StorageVolume(19) <= 90000
   0 <= StorageVolume(20) <= 90000
   0 <= StorageVolume(21) <= 90000
   0 <= StorageVolume(22) <= 90000
   0 <= StorageVolume(23) <= 90000
   0 <= StorageVolume(24) <= 90000
   0 <= StorageVolume(25) <= 90000
    -inf <= StorageExcess(1) <= +inf
    -inf <= StorageExcess(2) <= +inf
    -inf <= StorageExcess(3) <= +inf
    -inf <= StorageExcess(4) <= +inf
    -inf <= StorageExcess(5) <= +inf
    -inf <= StorageExcess(6) <= +inf
    -inf <= StorageExcess(7) <= +inf
    -inf <= StorageExcess(8) <= +inf
    -inf <= StorageExcess(9) <= +inf
    -inf <= StorageExcess(10) <= +inf
    -inf <= StorageExcess(11) <= +inf
    -inf <= StorageExcess(12) <= +inf
    -inf <= StorageExcess(13) <= +inf
    -inf <= StorageExcess(14) <= +inf
    -inf <= StorageExcess(15) <= +inf
    -inf <= StorageExcess(16) <= +inf
    -inf <= StorageExcess(17) <= +inf
    -inf <= StorageExcess(18) <= +inf
    -inf <= StorageExcess(19) <= +inf
    -inf <= StorageExcess(20) <= +inf
    -inf <= StorageExcess(21) <= +inf
    -inf <= StorageExcess(22) <= +inf
    -inf <= StorageExcess(23) <= +inf
    -inf <= StorageExcess(24) <= +inf
    -inf <= StorageExcess(25) <= +inf
end
